TCS_Benchmarks/redos_fix/regexlib1_output_distinct_1173_1172_71_0.txt
[\-\.0-9A-Za-z_]+
([\-\.0-9A-Za-z_]+)((\/?))([\\a\?#%&\$\'mA-Za-z\+\,p\-\.\/;0-9_]*)
[\\a\?#%&\$\'mA-Za-z\+\,p\-\.\/;0-9_]*